Welcome to the CBC MILP Solver 
Version: 2.10.3 
Build Date: Dec 15 2019 

command line - C:\Users\Kilian\PycharmProjects\Projekt_Optimierung\.venv\Lib\site-packages\pulp\apis\../solverdir/cbc/win/i64/cbc.exe C:\Users\Kilian\AppData\Local\Temp\6906fb1415c44c3d9e2d9fa3e69a22d8-pulp.mps -timeMode elapsed -branch -printingOptions all -solution C:\Users\Kilian\AppData\Local\Temp\6906fb1415c44c3d9e2d9fa3e69a22d8-pulp.sol (default strategy 1)
At line 2 NAME          MODEL
At line 3 ROWS
At line 241 COLUMNS
At line 245224 RHS
At line 245461 BOUNDS
At line 290140 ENDATA
Problem MODEL has 236 rows, 44678 columns and 110948 elements
Coin0008I MODEL read with 0 errors
Option for timeMode changed from cpu to elapsed
Continuous objective value is 62.274 - 0.18 seconds
Cgl0004I processed model has 236 rows, 3416 columns (3416 integer (1593 of which binary)) and 37234 elements
Cbc0038I Initial state - 0 integers unsatisfied sum - 0
Cbc0038I Solution found of 62.274
Cbc0038I Cleaned solution of 62.274
Cbc0038I Before mini branch and bound, 3416 integers at bound fixed and 0 continuous of which 35 were internal integer and 0 internal continuous
Cbc0038I Mini branch and bound did not improve solution (0.37 seconds)
Cbc0038I After 0.37 seconds - Feasibility pump exiting with objective of 62.274 - took 0.02 seconds
Cbc0012I Integer solution of 62.273983 found by feasibility pump after 0 iterations and 0 nodes (0.37 seconds)
Cbc0001I Search completed - best objective 62.27398290743321, took 0 iterations and 0 nodes (0.37 seconds)
Cbc0035I Maximum depth 0, 0 variables fixed on reduced cost
Cuts at root node changed objective from 62.274 to 62.274
Probing was tried 0 times and created 0 cuts of which 0 were active after adding rounds of cuts (0.000 seconds)
Gomory was tried 0 times and created 0 cuts of which 0 were active after adding rounds of cuts (0.000 seconds)
Knapsack was tried 0 times and created 0 cuts of which 0 were active after adding rounds of cuts (0.000 seconds)
Clique was tried 0 times and created 0 cuts of which 0 were active after adding rounds of cuts (0.000 seconds)
MixedIntegerRounding2 was tried 0 times and created 0 cuts of which 0 were active after adding rounds of cuts (0.000 seconds)
FlowCover was tried 0 times and created 0 cuts of which 0 were active after adding rounds of cuts (0.000 seconds)
TwoMirCuts was tried 0 times and created 0 cuts of which 0 were active after adding rounds of cuts (0.000 seconds)
ZeroHalf was tried 0 times and created 0 cuts of which 0 were active after adding rounds of cuts (0.000 seconds)

Result - Optimal solution found

Objective value:                62.27398291
Enumerated nodes:               0
Total iterations:               0
Time (CPU seconds):             0.45
Time (Wallclock seconds):       0.45

Option for printingOptions changed from normal to all
Total time (CPU seconds):       0.81   (Wallclock seconds):       0.81

